NAME : local_11
TYPE : ATSP
DIMENSION : 10
EDGE_WEIGHT_TYPE : EXPLICIT
EDGE_WEIGHT_FORMAT : FULL_MATRIX
EDGE_WEIGHT_SECTION
0 710 550 986 913 961 10000000 10000000 768 10000000 
0 0 715 934 10000000 10000000 445 853 557 10000000 
0 715 0 10000000 10000000 10000000 10000000 10000000 383 10000000 
0 934 10000000 0 518 412 10000000 612 10000000 586 
0 10000000 10000000 518 0 123 10000000 10000000 10000000 319 
0 10000000 10000000 412 123 0 10000000 985 10000000 307 
0 445 10000000 10000000 10000000 10000000 0 747 760 10000000 
0 853 10000000 612 10000000 985 759 0 10000000 10000000 
0 557 383 10000000 10000000 10000000 760 10000000 0 10000000 
0 10000000 10000000 10000000 10000000 10000000 10000000 10000000 10000000 0 
EOF